c FILE: i160-245

c SOURCE: From steinlib

c DESCRIPTION: Steinlib instance with 160 nodes and 2544 edges.

p edge 160 2544
e 1 12
e 1 14
e 1 19
e 1 21
e 1 26
e 1 40
e 1 48
e 1 57
e 1 60
e 1 61
e 1 62
e 1 66
e 1 75
e 1 83
e 1 85
e 1 93
e 1 95
e 1 105
e 1 126
e 1 127
e 1 132
e 1 133
e 1 139
e 1 140
e 1 143
e 1 148
e 1 153
e 1 156
e 1 157
e 2 4
e 2 5
e 2 6
e 2 8
e 2 10
e 2 12
e 2 20
e 2 27
e 2 28
e 2 33
e 2 35
e 2 37
e 2 40
e 2 43
e 2 51
e 2 57
e 2 60
e 2 61
e 2 80
e 2 81
e 2 82
e 2 86
e 2 91
e 2 95
e 2 97
e 2 105
e 2 112
e 2 114
e 2 128
e 2 129
e 2 137
e 2 139
e 2 145
e 2 151
e 2 154
e 2 155
e 2 156
e 2 157
e 3 8
e 3 11
e 3 14
e 3 16
e 3 24
e 3 28
e 3 33
e 3 42
e 3 55
e 3 56
e 3 62
e 3 67
e 3 68
e 3 70
e 3 73
e 3 77
e 3 84
e 3 87
e 3 97
e 3 106
e 3 131
e 3 150
e 3 154
e 3 155
e 3 159
e 4 6
e 4 8
e 4 9
e 4 10
e 4 14
e 4 16
e 4 18
e 4 19
e 4 22
e 4 29
e 4 30
e 4 36
e 4 38
e 4 47
e 4 49
e 4 54
e 4 56
e 4 58
e 4 64
e 4 76
e 4 78
e 4 83
e 4 85
e 4 88
e 4 97
e 4 99
e 4 109
e 4 119
e 4 121
e 4 131
e 4 133
e 4 144
e 4 150
e 4 152
e 4 154
e 4 155
e 5 22
e 5 24
e 5 25
e 5 35
e 5 41
e 5 48
e 5 49
e 5 54
e 5 57
e 5 62
e 5 67
e 5 70
e 5 72
e 5 74
e 5 83
e 5 85
e 5 95
e 5 97
e 5 107
e 5 113
e 5 120
e 5 123
e 5 124
e 5 125
e 5 132
e 5 135
e 5 137
e 5 146
e 5 158
e 5 160
e 6 8
e 6 12
e 6 15
e 6 17
e 6 28
e 6 33
e 6 39
e 6 40
e 6 45
e 6 48
e 6 70
e 6 71
e 6 76
e 6 89
e 6 97
e 6 98
e 6 99
e 6 105
e 6 113
e 6 116
e 6 119
e 6 126
e 6 129
e 6 136
e 6 137
e 6 140
e 6 141
e 6 147
e 6 156
e 6 158
e 7 13
e 7 15
e 7 17
e 7 24
e 7 32
e 7 40
e 7 49
e 7 67
e 7 71
e 7 74
e 7 77
e 7 78
e 7 81
e 7 86
e 7 95
e 7 96
e 7 97
e 7 104
e 7 111
e 7 119
e 7 124
e 7 126
e 7 131
e 7 138
e 7 139
e 7 140
e 7 144
e 8 17
e 8 18
e 8 20
e 8 22
e 8 23
e 8 24
e 8 32
e 8 43
e 8 44
e 8 46
e 8 61
e 8 67
e 8 69
e 8 78
e 8 83
e 8 84
e 8 86
e 8 100
e 8 101
e 8 105
e 8 108
e 8 113
e 8 116
e 8 122
e 8 127
e 8 133
e 8 137
e 8 140
e 8 148
e 8 149
e 8 151
e 9 15
e 9 20
e 9 23
e 9 29
e 9 31
e 9 37
e 9 51
e 9 75
e 9 78
e 9 79
e 9 85
e 9 91
e 9 94
e 9 96
e 9 98
e 9 102
e 9 107
e 9 118
e 9 125
e 9 128
e 9 129
e 9 147
e 9 149
e 9 155
e 10 12
e 10 19
e 10 20
e 10 21
e 10 25
e 10 37
e 10 43
e 10 45
e 10 46
e 10 63
e 10 66
e 10 71
e 10 72
e 10 73
e 10 76
e 10 92
e 10 94
e 10 98
e 10 100
e 10 105
e 10 110
e 10 111
e 10 119
e 10 125
e 10 128
e 10 129
e 10 136
e 10 148
e 10 154
e 10 156
e 10 159
e 11 19
e 11 24
e 11 30
e 11 32
e 11 34
e 11 35
e 11 36
e 11 47
e 11 48
e 11 50
e 11 53
e 11 55
e 11 65
e 11 74
e 11 75
e 11 77
e 11 83
e 11 87
e 11 109
e 11 120
e 11 126
e 11 128
e 11 131
e 11 136
e 11 138
e 11 143
e 11 150
e 11 152
e 11 153
e 11 160
e 12 30
e 12 37
e 12 40
e 12 42
e 12 46
e 12 47
e 12 49
e 12 52
e 12 53
e 12 54
e 12 62
e 12 67
e 12 79
e 12 82
e 12 87
e 12 88
e 12 94
e 12 97
e 12 98
e 12 100
e 12 103
e 12 113
e 12 116
e 12 121
e 12 123
e 12 124
e 12 126
e 12 133
e 12 137
e 12 152
e 12 155
e 13 17
e 13 27
e 13 29
e 13 30
e 13 31
e 13 33
e 13 34
e 13 36
e 13 45
e 13 57
e 13 74
e 13 85
e 13 88
e 13 94
e 13 96
e 13 103
e 13 104
e 13 110
e 13 111
e 13 112
e 13 117
e 13 140
e 13 144
e 13 145
e 13 147
e 13 151
e 13 155
e 13 157
e 14 30
e 14 35
e 14 52
e 14 57
e 14 58
e 14 61
e 14 62
e 14 70
e 14 84
e 14 95
e 14 99
e 14 101
e 14 103
e 14 104
e 14 109
e 14 111
e 14 115
e 14 119
e 14 125
e 14 130
e 14 132
e 14 138
e 14 139
e 14 142
e 14 153
e 14 157
e 14 160
e 15 17
e 15 19
e 15 22
e 15 29
e 15 32
e 15 42
e 15 44
e 15 50
e 15 61
e 15 63
e 15 65
e 15 73
e 15 79
e 15 80
e 15 83
e 15 86
e 15 105
e 15 114
e 15 118
e 15 120
e 15 124
e 15 132
e 15 137
e 15 142
e 15 144
e 15 149
e 15 152
e 15 154
e 15 156
e 15 158
e 16 17
e 16 27
e 16 38
e 16 40
e 16 55
e 16 60
e 16 61
e 16 63
e 16 64
e 16 67
e 16 70
e 16 72
e 16 83
e 16 84
e 16 94
e 16 100
e 16 101
e 16 109
e 16 113
e 16 116
e 16 118
e 16 136
e 16 139
e 16 142
e 16 152
e 16 156
e 17 18
e 17 24
e 17 30
e 17 32
e 17 34
e 17 40
e 17 41
e 17 51
e 17 52
e 17 55
e 17 56
e 17 60
e 17 64
e 17 67
e 17 80
e 17 85
e 17 90
e 17 92
e 17 108
e 17 110
e 17 112
e 17 119
e 17 120
e 17 125
e 17 131
e 17 134
e 17 139
e 17 143
e 18 22
e 18 34
e 18 37
e 18 38
e 18 58
e 18 60
e 18 61
e 18 72
e 18 81
e 18 85
e 18 90
e 18 91
e 18 93
e 18 102
e 18 105
e 18 118
e 18 124
e 18 130
e 18 139
e 18 147
e 18 149
e 18 151
e 18 158
e 19 20
e 19 21
e 19 22
e 19 26
e 19 28
e 19 31
e 19 32
e 19 33
e 19 35
e 19 39
e 19 45
e 19 51
e 19 62
e 19 66
e 19 77
e 19 79
e 19 94
e 19 99
e 19 110
e 19 113
e 19 121
e 19 124
e 19 127
e 19 128
e 19 129
e 19 137
e 19 148
e 19 158
e 19 159
e 19 160
e 20 22
e 20 25
e 20 27
e 20 34
e 20 40
e 20 45
e 20 46
e 20 56
e 20 68
e 20 71
e 20 77
e 20 87
e 20 89
e 20 99
e 20 101
e 20 104
e 20 108
e 20 110
e 20 119
e 20 120
e 20 122
e 20 128
e 20 129
e 20 134
e 20 141
e 20 142
e 20 144
e 20 145
e 20 149
e 20 150
e 20 160
e 21 25
e 21 26
e 21 31
e 21 49
e 21 62
e 21 63
e 21 64
e 21 65
e 21 66
e 21 68
e 21 73
e 21 78
e 21 80
e 21 90
e 21 91
e 21 97
e 21 108
e 21 111
e 21 114
e 21 131
e 21 139
e 21 143
e 21 145
e 21 149
e 21 151
e 21 160
e 22 34
e 22 35
e 22 38
e 22 44
e 22 48
e 22 50
e 22 53
e 22 55
e 22 57
e 22 58
e 22 62
e 22 78
e 22 80
e 22 86
e 22 87
e 22 89
e 22 92
e 22 93
e 22 99
e 22 102
e 22 106
e 22 111
e 22 123
e 22 127
e 22 130
e 22 131
e 22 132
e 22 133
e 22 134
e 22 135
e 22 140
e 22 156
e 22 157
e 23 36
e 23 41
e 23 51
e 23 52
e 23 58
e 23 59
e 23 69
e 23 70
e 23 72
e 23 94
e 23 101
e 23 102
e 23 110
e 23 114
e 23 124
e 23 129
e 23 132
e 23 133
e 23 140
e 23 144
e 23 148
e 23 149
e 23 157
e 23 158
e 24 30
e 24 33
e 24 34
e 24 48
e 24 49
e 24 53
e 24 60
e 24 70
e 24 73
e 24 78
e 24 81
e 24 96
e 24 97
e 24 99
e 24 102
e 24 110
e 24 112
e 24 114
e 24 118
e 24 120
e 24 123
e 24 129
e 24 131
e 24 139
e 24 141
e 24 143
e 24 146
e 24 147
e 24 148
e 24 160
e 25 26
e 25 28
e 25 30
e 25 40
e 25 47
e 25 48
e 25 59
e 25 63
e 25 70
e 25 72
e 25 78
e 25 91
e 25 95
e 25 96
e 25 102
e 25 129
e 25 130
e 25 131
e 25 135
e 25 138
e 25 140
e 25 148
e 25 149
e 25 156
e 26 29
e 26 30
e 26 39
e 26 43
e 26 61
e 26 70
e 26 73
e 26 74
e 26 76
e 26 86
e 26 91
e 26 95
e 26 99
e 26 107
e 26 109
e 26 116
e 26 119
e 26 126
e 26 129
e 26 132
e 26 136
e 26 137
e 26 142
e 26 143
e 26 144
e 26 145
e 26 146
e 26 157
e 27 33
e 27 35
e 27 37
e 27 40
e 27 46
e 27 49
e 27 57
e 27 71
e 27 74
e 27 77
e 27 78
e 27 79
e 27 82
e 27 83
e 27 86
e 27 95
e 27 96
e 27 97
e 27 98
e 27 100
e 27 101
e 27 103
e 27 104
e 27 113
e 27 118
e 27 119
e 27 120
e 27 130
e 27 135
e 27 136
e 27 137
e 27 145
e 27 148
e 27 149
e 27 153
e 27 157
e 27 159
e 28 35
e 28 39
e 28 49
e 28 53
e 28 54
e 28 69
e 28 73
e 28 74
e 28 76
e 28 77
e 28 86
e 28 94
e 28 95
e 28 100
e 28 103
e 28 109
e 28 124
e 28 128
e 28 130
e 28 131
e 28 133
e 28 142
e 28 152
e 28 155
e 29 34
e 29 43
e 29 45
e 29 46
e 29 53
e 29 58
e 29 62
e 29 72
e 29 76
e 29 83
e 29 84
e 29 91
e 29 92
e 29 97
e 29 104
e 29 105
e 29 123
e 29 125
e 29 127
e 29 131
e 29 133
e 29 138
e 29 139
e 29 141
e 29 142
e 29 144
e 29 153
e 30 41
e 30 48
e 30 50
e 30 53
e 30 68
e 30 70
e 30 71
e 30 73
e 30 81
e 30 82
e 30 85
e 30 89
e 30 90
e 30 91
e 30 92
e 30 93
e 30 96
e 30 101
e 30 104
e 30 107
e 30 108
e 30 114
e 30 119
e 30 122
e 30 136
e 30 152
e 30 154
e 31 32
e 31 33
e 31 35
e 31 39
e 31 42
e 31 50
e 31 60
e 31 66
e 31 71
e 31 72
e 31 75
e 31 80
e 31 85
e 31 103
e 31 109
e 31 112
e 31 115
e 31 122
e 31 127
e 31 129
e 31 136
e 31 138
e 31 142
e 31 145
e 31 148
e 31 150
e 31 153
e 31 160
e 32 36
e 32 37
e 32 39
e 32 49
e 32 50
e 32 52
e 32 58
e 32 60
e 32 68
e 32 76
e 32 79
e 32 81
e 32 83
e 32 85
e 32 86
e 32 90
e 32 94
e 32 98
e 32 101
e 32 106
e 32 112
e 32 115
e 32 116
e 32 117
e 32 125
e 32 126
e 32 127
e 32 133
e 32 135
e 32 139
e 32 141
e 32 147
e 32 148
e 32 152
e 32 153
e 32 157
e 32 158
e 33 42
e 33 45
e 33 49
e 33 50
e 33 55
e 33 60
e 33 63
e 33 65
e 33 68
e 33 71
e 33 73
e 33 76
e 33 78
e 33 82
e 33 84
e 33 85
e 33 86
e 33 90
e 33 93
e 33 110
e 33 131
e 33 141
e 33 144
e 33 150
e 33 156
e 33 158
e 34 36
e 34 50
e 34 59
e 34 60
e 34 63
e 34 67
e 34 72
e 34 77
e 34 80
e 34 83
e 34 85
e 34 89
e 34 90
e 34 91
e 34 94
e 34 96
e 34 114
e 34 116
e 34 121
e 34 129
e 34 130
e 34 133
e 34 140
e 34 142
e 34 144
e 34 146
e 34 155
e 34 156
e 35 37
e 35 39
e 35 48
e 35 55
e 35 59
e 35 63
e 35 65
e 35 66
e 35 69
e 35 75
e 35 79
e 35 84
e 35 86
e 35 94
e 35 98
e 35 100
e 35 110
e 35 116
e 35 118
e 35 120
e 35 131
e 35 135
e 35 137
e 35 139
e 35 145
e 35 146
e 35 152
e 36 38
e 36 59
e 36 63
e 36 71
e 36 76
e 36 78
e 36 79
e 36 80
e 36 84
e 36 88
e 36 90
e 36 92
e 36 98
e 36 104
e 36 105
e 36 110
e 36 115
e 36 116
e 36 119
e 36 127
e 36 128
e 36 131
e 36 132
e 36 136
e 36 141
e 36 146
e 36 153
e 36 156
e 37 45
e 37 46
e 37 64
e 37 73
e 37 80
e 37 83
e 37 113
e 37 115
e 37 120
e 37 121
e 37 123
e 37 125
e 37 131
e 37 139
e 37 140
e 37 151
e 37 152
e 37 159
e 38 46
e 38 47
e 38 49
e 38 52
e 38 55
e 38 58
e 38 61
e 38 66
e 38 67
e 38 70
e 38 74
e 38 76
e 38 80
e 38 84
e 38 85
e 38 87
e 38 94
e 38 96
e 38 107
e 38 112
e 38 114
e 38 119
e 38 121
e 38 133
e 38 153
e 38 157
e 38 160
e 39 44
e 39 51
e 39 55
e 39 57
e 39 61
e 39 65
e 39 75
e 39 76
e 39 77
e 39 80
e 39 82
e 39 91
e 39 103
e 39 110
e 39 112
e 39 116
e 39 125
e 39 137
e 39 139
e 39 140
e 39 148
e 39 153
e 39 156
e 40 42
e 40 48
e 40 50
e 40 53
e 40 55
e 40 56
e 40 61
e 40 68
e 40 70
e 40 71
e 40 74
e 40 75
e 40 77
e 40 78
e 40 82
e 40 85
e 40 87
e 40 93
e 40 95
e 40 96
e 40 100
e 40 111
e 40 113
e 40 119
e 40 123
e 40 125
e 40 127
e 40 131
e 40 136
e 40 138
e 40 139
e 40 142
e 40 146
e 40 159
e 40 160
e 41 51
e 41 52
e 41 53
e 41 56
e 41 61
e 41 62
e 41 66
e 41 70
e 41 85
e 41 87
e 41 91
e 41 94
e 41 97
e 41 102
e 41 115
e 41 119
e 41 120
e 41 131
e 41 140
e 41 146
e 41 152
e 41 155
e 41 159
e 42 43
e 42 45
e 42 54
e 42 60
e 42 61
e 42 70
e 42 75
e 42 81
e 42 85
e 42 91
e 42 92
e 42 99
e 42 100
e 42 101
e 42 119
e 42 122
e 42 131
e 42 133
e 42 134
e 42 142
e 42 143
e 42 148
e 42 150
e 42 152
e 42 158
e 43 48
e 43 61
e 43 65
e 43 66
e 43 77
e 43 86
e 43 95
e 43 99
e 43 101
e 43 104
e 43 107
e 43 109
e 43 111
e 43 118
e 43 123
e 43 125
e 43 131
e 43 142
e 43 143
e 43 146
e 43 149
e 43 155
e 43 157
e 44 45
e 44 48
e 44 61
e 44 64
e 44 66
e 44 74
e 44 78
e 44 79
e 44 86
e 44 88
e 44 92
e 44 93
e 44 97
e 44 98
e 44 102
e 44 107
e 44 136
e 44 155
e 44 157
e 44 159
e 45 53
e 45 57
e 45 60
e 45 61
e 45 67
e 45 80
e 45 81
e 45 82
e 45 86
e 45 88
e 45 91
e 45 94
e 45 98
e 45 99
e 45 100
e 45 104
e 45 111
e 45 118
e 45 121
e 45 122
e 45 123
e 45 127
e 45 135
e 45 142
e 45 145
e 45 147
e 45 153
e 45 156
e 45 159
e 45 160
e 46 47
e 46 48
e 46 51
e 46 65
e 46 69
e 46 77
e 46 78
e 46 81
e 46 86
e 46 89
e 46 95
e 46 99
e 46 103
e 46 104
e 46 106
e 46 118
e 46 123
e 46 124
e 46 125
e 46 128
e 46 134
e 46 137
e 46 144
e 46 147
e 46 152
e 47 49
e 47 52
e 47 54
e 47 63
e 47 72
e 47 77
e 47 78
e 47 86
e 47 94
e 47 95
e 47 101
e 47 107
e 47 109
e 47 115
e 47 138
e 47 139
e 47 142
e 47 146
e 47 148
e 47 154
e 47 159
e 48 49
e 48 56
e 48 58
e 48 65
e 48 76
e 48 79
e 48 80
e 48 89
e 48 91
e 48 99
e 48 100
e 48 101
e 48 112
e 48 113
e 48 120
e 48 121
e 48 131
e 48 141
e 48 145
e 48 151
e 48 154
e 48 157
e 49 51
e 49 52
e 49 55
e 49 59
e 49 63
e 49 68
e 49 70
e 49 74
e 49 80
e 49 81
e 49 82
e 49 89
e 49 91
e 49 93
e 49 95
e 49 96
e 49 97
e 49 100
e 49 104
e 49 108
e 49 110
e 49 116
e 49 119
e 49 121
e 49 122
e 49 125
e 49 127
e 49 128
e 49 142
e 49 144
e 49 150
e 49 152
e 50 52
e 50 55
e 50 56
e 50 65
e 50 68
e 50 70
e 50 77
e 50 78
e 50 80
e 50 88
e 50 95
e 50 98
e 50 107
e 50 110
e 50 115
e 50 116
e 50 122
e 50 126
e 50 128
e 50 129
e 50 130
e 50 133
e 50 137
e 50 139
e 50 140
e 50 145
e 50 146
e 50 151
e 51 54
e 51 64
e 51 66
e 51 82
e 51 83
e 51 86
e 51 89
e 51 95
e 51 98
e 51 105
e 51 114
e 51 125
e 51 133
e 51 146
e 51 152
e 51 153
e 52 57
e 52 62
e 52 66
e 52 73
e 52 76
e 52 78
e 52 95
e 52 98
e 52 103
e 52 104
e 52 107
e 52 108
e 52 113
e 52 117
e 52 121
e 52 128
e 52 136
e 52 137
e 52 139
e 52 142
e 52 150
e 52 155
e 52 160
e 53 65
e 53 82
e 53 86
e 53 102
e 53 103
e 53 119
e 53 123
e 53 137
e 53 138
e 53 139
e 53 140
e 53 145
e 53 147
e 54 55
e 54 58
e 54 62
e 54 70
e 54 73
e 54 80
e 54 86
e 54 89
e 54 90
e 54 96
e 54 100
e 54 101
e 54 108
e 54 112
e 54 113
e 54 120
e 54 121
e 54 124
e 54 125
e 54 131
e 54 132
e 54 134
e 54 138
e 54 139
e 54 145
e 54 154
e 54 157
e 55 56
e 55 58
e 55 62
e 55 68
e 55 69
e 55 70
e 55 75
e 55 82
e 55 92
e 55 94
e 55 96
e 55 101
e 55 110
e 55 115
e 55 125
e 55 129
e 55 134
e 55 140
e 55 145
e 55 146
e 55 147
e 55 152
e 55 159
e 56 60
e 56 65
e 56 66
e 56 67
e 56 70
e 56 75
e 56 76
e 56 77
e 56 81
e 56 85
e 56 87
e 56 88
e 56 95
e 56 115
e 56 118
e 56 123
e 56 125
e 56 127
e 56 129
e 56 138
e 56 142
e 56 144
e 56 152
e 56 154
e 57 59
e 57 71
e 57 75
e 57 88
e 57 90
e 57 93
e 57 102
e 57 108
e 57 113
e 57 118
e 57 122
e 57 124
e 57 133
e 57 138
e 57 142
e 58 59
e 58 62
e 58 67
e 58 69
e 58 71
e 58 72
e 58 76
e 58 77
e 58 81
e 58 87
e 58 92
e 58 96
e 58 97
e 58 98
e 58 106
e 58 108
e 58 109
e 58 126
e 58 130
e 58 144
e 58 150
e 58 152
e 58 158
e 58 159
e 59 64
e 59 66
e 59 69
e 59 74
e 59 78
e 59 84
e 59 92
e 59 93
e 59 94
e 59 101
e 59 102
e 59 104
e 59 108
e 59 114
e 59 116
e 59 124
e 59 130
e 59 132
e 59 134
e 59 135
e 59 138
e 59 143
e 59 145
e 59 146
e 59 156
e 59 157
e 59 158
e 59 159
e 60 61
e 60 66
e 60 68
e 60 76
e 60 77
e 60 80
e 60 83
e 60 86
e 60 92
e 60 93
e 60 97
e 60 98
e 60 100
e 60 102
e 60 105
e 60 106
e 60 108
e 60 126
e 60 127
e 60 134
e 60 137
e 60 146
e 60 149
e 60 151
e 60 156
e 61 62
e 61 63
e 61 64
e 61 69
e 61 71
e 61 74
e 61 92
e 61 97
e 61 98
e 61 100
e 61 108
e 61 117
e 61 118
e 61 124
e 61 125
e 61 127
e 61 136
e 61 145
e 61 151
e 61 158
e 62 66
e 62 71
e 62 74
e 62 81
e 62 89
e 62 90
e 62 94
e 62 96
e 62 109
e 62 111
e 62 115
e 62 123
e 62 124
e 62 131
e 62 134
e 62 138
e 62 147
e 62 149
e 62 151
e 62 158
e 62 159
e 63 68
e 63 74
e 63 76
e 63 83
e 63 84
e 63 110
e 63 115
e 63 117
e 63 120
e 63 121
e 63 123
e 63 139
e 63 145
e 63 148
e 63 149
e 63 153
e 63 156
e 63 157
e 63 158
e 63 159
e 64 65
e 64 84
e 64 98
e 64 104
e 64 106
e 64 107
e 64 110
e 64 113
e 64 117
e 64 118
e 64 119
e 64 120
e 64 123
e 64 124
e 64 128
e 64 136
e 64 145
e 64 149
e 64 151
e 64 158
e 65 68
e 65 72
e 65 76
e 65 84
e 65 89
e 65 90
e 65 96
e 65 98
e 65 109
e 65 111
e 65 113
e 65 118
e 65 119
e 65 122
e 65 123
e 65 125
e 65 127
e 65 131
e 65 138
e 65 139
e 65 148
e 65 154
e 66 73
e 66 75
e 66 80
e 66 81
e 66 92
e 66 96
e 66 107
e 66 115
e 66 116
e 66 118
e 66 123
e 66 127
e 66 150
e 66 151
e 66 152
e 67 68
e 67 79
e 67 88
e 67 91
e 67 93
e 67 106
e 67 112
e 67 122
e 67 124
e 67 128
e 67 138
e 67 139
e 67 140
e 67 144
e 67 151
e 68 81
e 68 85
e 68 86
e 68 89
e 68 92
e 68 95
e 68 97
e 68 100
e 68 102
e 68 106
e 68 109
e 68 114
e 68 118
e 68 119
e 68 120
e 68 126
e 68 129
e 68 133
e 68 137
e 68 142
e 68 144
e 68 146
e 69 71
e 69 77
e 69 87
e 69 89
e 69 93
e 69 98
e 69 101
e 69 108
e 69 111
e 69 114
e 69 131
e 69 134
e 69 136
e 69 138
e 69 141
e 69 145
e 69 146
e 69 149
e 70 71
e 70 72
e 70 84
e 70 93
e 70 98
e 70 100
e 70 112
e 70 113
e 70 124
e 70 125
e 70 128
e 70 143
e 70 144
e 70 149
e 71 80
e 71 88
e 71 93
e 71 95
e 71 96
e 71 101
e 71 105
e 71 107
e 71 114
e 71 140
e 71 150
e 71 156
e 72 83
e 72 104
e 72 125
e 72 126
e 72 129
e 72 136
e 72 142
e 72 144
e 72 156
e 72 157
e 72 160
e 73 76
e 73 89
e 73 98
e 73 104
e 73 108
e 73 112
e 73 113
e 73 115
e 73 121
e 73 122
e 73 130
e 73 146
e 73 148
e 73 152
e 73 157
e 74 82
e 74 93
e 74 98
e 74 101
e 74 103
e 74 109
e 74 111
e 74 123
e 74 141
e 74 153
e 74 156
e 75 76
e 75 77
e 75 83
e 75 89
e 75 92
e 75 97
e 75 104
e 75 109
e 75 110
e 75 111
e 75 114
e 75 117
e 75 128
e 75 134
e 75 137
e 75 144
e 75 153
e 75 157
e 76 78
e 76 81
e 76 82
e 76 83
e 76 89
e 76 104
e 76 108
e 76 116
e 76 118
e 76 119
e 76 121
e 76 122
e 76 132
e 76 134
e 76 140
e 76 141
e 76 143
e 76 144
e 76 153
e 77 79
e 77 82
e 77 86
e 77 87
e 77 89
e 77 93
e 77 99
e 77 100
e 77 103
e 77 119
e 77 121
e 77 122
e 77 138
e 77 141
e 77 144
e 77 151
e 77 154
e 77 156
e 77 160
e 78 81
e 78 90
e 78 98
e 78 101
e 78 107
e 78 115
e 78 125
e 78 129
e 78 143
e 78 145
e 78 148
e 78 156
e 79 93
e 79 94
e 79 103
e 79 105
e 79 106
e 79 107
e 79 117
e 79 118
e 79 119
e 79 132
e 79 148
e 79 149
e 79 150
e 79 159
e 80 87
e 80 99
e 80 101
e 80 102
e 80 105
e 80 107
e 80 108
e 80 112
e 80 114
e 80 116
e 80 118
e 80 120
e 80 125
e 80 126
e 80 132
e 80 136
e 80 139
e 80 140
e 80 149
e 80 155
e 80 156
e 80 160
e 81 83
e 81 85
e 81 98
e 81 100
e 81 107
e 81 112
e 81 114
e 81 118
e 81 122
e 81 126
e 81 130
e 81 138
e 81 141
e 81 142
e 81 154
e 81 156
e 81 160
e 82 85
e 82 86
e 82 89
e 82 91
e 82 98
e 82 102
e 82 107
e 82 115
e 82 116
e 82 131
e 82 133
e 82 134
e 82 153
e 82 157
e 82 159
e 83 90
e 83 106
e 83 109
e 83 110
e 83 114
e 83 117
e 83 131
e 83 132
e 83 134
e 83 143
e 83 152
e 83 156
e 83 158
e 84 90
e 84 94
e 84 96
e 84 99
e 84 105
e 84 108
e 84 119
e 84 121
e 84 123
e 84 126
e 84 130
e 84 131
e 84 138
e 84 142
e 84 154
e 84 156
e 84 160
e 85 89
e 85 90
e 85 92
e 85 96
e 85 99
e 85 104
e 85 112
e 85 118
e 85 120
e 85 122
e 85 125
e 85 127
e 85 128
e 85 145
e 85 149
e 86 87
e 86 88
e 86 107
e 86 110
e 86 111
e 86 117
e 86 126
e 86 129
e 86 133
e 86 137
e 86 143
e 86 148
e 86 156
e 87 91
e 87 95
e 87 106
e 87 111
e 87 112
e 87 115
e 87 119
e 87 120
e 87 129
e 87 132
e 87 137
e 87 138
e 87 143
e 87 144
e 87 145
e 87 149
e 87 150
e 87 154
e 87 159
e 88 90
e 88 91
e 88 94
e 88 100
e 88 108
e 88 111
e 88 117
e 88 127
e 88 133
e 88 135
e 88 136
e 88 141
e 88 145
e 88 146
e 88 151
e 88 156
e 88 159
e 89 91
e 89 92
e 89 99
e 89 119
e 89 122
e 89 127
e 89 145
e 89 149
e 89 159
e 90 93
e 90 94
e 90 96
e 90 129
e 90 139
e 90 140
e 90 150
e 90 151
e 90 155
e 90 158
e 90 160
e 91 97
e 91 112
e 91 125
e 91 147
e 91 150
e 91 153
e 91 157
e 92 109
e 92 112
e 92 118
e 92 122
e 92 123
e 92 133
e 92 134
e 92 137
e 92 138
e 92 140
e 92 143
e 93 105
e 93 107
e 93 108
e 93 112
e 93 114
e 93 120
e 93 122
e 93 126
e 93 130
e 93 139
e 93 141
e 93 143
e 93 144
e 93 147
e 93 150
e 93 152
e 93 157
e 93 160
e 94 104
e 94 117
e 94 123
e 94 132
e 94 139
e 94 141
e 94 143
e 94 148
e 94 149
e 94 154
e 94 157
e 95 101
e 95 104
e 95 111
e 95 123
e 95 128
e 95 133
e 95 135
e 95 138
e 95 140
e 95 145
e 95 153
e 95 155
e 95 159
e 96 99
e 96 102
e 96 106
e 96 118
e 96 125
e 96 129
e 96 134
e 96 142
e 96 160
e 97 101
e 97 105
e 97 107
e 97 113
e 97 116
e 97 121
e 97 126
e 97 137
e 98 100
e 98 102
e 98 110
e 98 111
e 98 126
e 98 127
e 98 128
e 98 135
e 98 137
e 98 140
e 98 144
e 98 153
e 98 155
e 99 101
e 99 106
e 99 109
e 99 117
e 99 125
e 99 127
e 99 128
e 99 134
e 99 141
e 99 142
e 99 145
e 99 147
e 99 154
e 99 156
e 99 159
e 100 102
e 100 114
e 100 118
e 100 121
e 100 124
e 100 132
e 100 137
e 100 143
e 100 144
e 100 150
e 100 156
e 100 158
e 101 102
e 101 105
e 101 121
e 101 122
e 101 130
e 101 143
e 101 160
e 102 106
e 102 109
e 102 117
e 102 138
e 102 140
e 102 150
e 102 151
e 102 154
e 102 155
e 102 159
e 103 106
e 103 108
e 103 111
e 103 112
e 103 115
e 103 117
e 103 128
e 103 129
e 103 134
e 103 145
e 103 147
e 103 157
e 103 159
e 103 160
e 104 105
e 104 109
e 104 115
e 104 116
e 104 142
e 104 144
e 104 147
e 104 154
e 104 155
e 105 107
e 105 108
e 105 116
e 105 117
e 105 146
e 105 147
e 105 149
e 106 112
e 106 114
e 106 115
e 106 117
e 106 137
e 106 141
e 106 147
e 106 150
e 106 151
e 106 153
e 106 160
e 107 108
e 107 118
e 107 120
e 107 126
e 107 127
e 107 133
e 107 136
e 107 148
e 107 159
e 107 160
e 108 111
e 108 115
e 108 116
e 108 121
e 108 136
e 108 138
e 108 145
e 108 150
e 109 110
e 109 114
e 109 116
e 109 120
e 109 121
e 109 122
e 109 124
e 109 125
e 109 130
e 109 134
e 109 135
e 109 140
e 109 145
e 109 153
e 109 157
e 110 113
e 110 118
e 110 121
e 110 125
e 110 126
e 110 129
e 110 134
e 110 137
e 110 145
e 110 152
e 110 158
e 110 159
e 111 112
e 111 116
e 111 117
e 111 118
e 111 122
e 111 126
e 111 128
e 111 133
e 111 138
e 111 141
e 111 156
e 111 158
e 112 116
e 112 119
e 112 121
e 112 124
e 112 125
e 112 134
e 112 135
e 112 137
e 112 141
e 112 146
e 112 149
e 112 150
e 112 152
e 112 153
e 113 115
e 113 117
e 113 119
e 113 124
e 113 129
e 113 132
e 113 144
e 113 154
e 113 157
e 113 159
e 114 123
e 114 136
e 114 154
e 114 156
e 114 158
e 114 160
e 115 120
e 115 121
e 115 125
e 115 135
e 115 143
e 115 150
e 115 154
e 116 123
e 116 125
e 116 138
e 116 144
e 116 150
e 116 154
e 116 159
e 117 118
e 117 124
e 117 130
e 117 142
e 117 146
e 117 151
e 117 153
e 117 154
e 118 120
e 118 123
e 118 132
e 118 144
e 118 157
e 118 158
e 119 120
e 119 121
e 119 127
e 119 129
e 119 131
e 119 139
e 119 143
e 119 145
e 119 146
e 119 148
e 120 125
e 120 128
e 120 136
e 120 158
e 120 159
e 121 125
e 121 127
e 121 128
e 121 136
e 121 140
e 121 141
e 121 145
e 121 149
e 122 130
e 122 132
e 122 146
e 122 156
e 122 157
e 122 159
e 123 125
e 123 127
e 123 134
e 123 140
e 123 144
e 123 149
e 123 150
e 123 152
e 123 154
e 123 155
e 123 156
e 124 131
e 124 134
e 124 136
e 124 137
e 124 140
e 124 141
e 124 152
e 125 127
e 125 129
e 125 150
e 125 154
e 126 128
e 126 141
e 126 144
e 126 152
e 127 137
e 127 140
e 127 141
e 127 157
e 128 134
e 128 135
e 128 146
e 128 152
e 128 156
e 129 136
e 129 139
e 129 141
e 129 148
e 129 153
e 129 156
e 129 159
e 130 145
e 130 147
e 130 149
e 130 151
e 130 155
e 130 157
e 131 135
e 131 140
e 131 149
e 131 150
e 132 141
e 132 146
e 133 135
e 133 136
e 133 139
e 133 141
e 133 147
e 133 151
e 134 135
e 134 136
e 134 142
e 134 146
e 134 152
e 134 160
e 135 136
e 135 139
e 135 141
e 135 148
e 135 152
e 135 158
e 136 139
e 136 142
e 136 144
e 136 146
e 136 153
e 136 160
e 137 140
e 137 143
e 137 144
e 137 148
e 137 149
e 137 158
e 138 144
e 139 146
e 139 154
e 140 142
e 140 145
e 140 148
e 140 151
e 140 153
e 140 159
e 141 142
e 141 144
e 141 148
e 141 149
e 141 150
e 142 150
e 142 154
e 142 156
e 143 144
e 143 145
e 143 148
e 144 147
e 144 151
e 144 156
e 144 159
e 145 148
e 145 150
e 145 156
e 145 159
e 145 160
e 147 152
e 147 153
e 147 154
e 148 149
e 148 152
e 148 155
e 148 158
e 148 160
e 149 154
e 149 155
e 150 151
e 150 158
e 150 159
e 151 156
e 152 156
e 154 157
e 157 158
